c nIsolatedPIs 0
c maxPI 16
p cnf 84 205
c gate 17 -8 16 0
-8 -17 0
16 -17 0
8 -16 17 0
c gate 18 8 -16 0
8 -18 0
-16 -18 0
-8 16 18 0
c gate 19 -17 -18 0
-17 -19 0
-18 -19 0
17 18 19 0
c gate 20 -7 15 0
-7 -20 0
15 -20 0
7 -15 20 0
c gate 21 -1 9 0
-1 -21 0
9 -21 0
1 -9 21 0
c gate 22 1 -9 0
1 -22 0
-9 -22 0
-1 9 22 0
c gate 23 2 -10 0
2 -23 0
-10 -23 0
-2 10 23 0
c gate 24 -2 10 0
-2 -24 0
10 -24 0
2 -10 24 0
c gate 25 -23 -24 0
-23 -25 0
-24 -25 0
23 24 25 0
c gate 26 -22 25 0
-22 -26 0
25 -26 0
22 -25 26 0
c gate 27 -21 26 0
-21 -27 0
26 -27 0
21 -26 27 0
c gate 28 4 -12 0
4 -28 0
-12 -28 0
-4 12 28 0
c gate 29 -4 12 0
-4 -29 0
12 -29 0
4 -12 29 0
c gate 30 -28 -29 0
-28 -30 0
-29 -30 0
28 29 30 0
c gate 31 -3 11 0
-3 -31 0
11 -31 0
3 -11 31 0
c gate 32 3 -11 0
3 -32 0
-11 -32 0
-3 11 32 0
c gate 33 -31 -32 0
-31 -33 0
-32 -33 0
31 32 33 0
c gate 34 30 33 0
30 -34 0
33 -34 0
-30 -33 34 0
c gate 35 27 34 0
27 -35 0
34 -35 0
-27 -34 35 0
c gate 36 -6 14 0
-6 -36 0
14 -36 0
6 -14 36 0
c gate 37 6 -14 0
6 -37 0
-14 -37 0
-6 14 37 0
c gate 38 5 -13 0
5 -38 0
-13 -38 0
-5 13 38 0
c gate 39 -37 -38 0
-37 -39 0
-38 -39 0
37 38 39 0
c gate 40 -36 39 0
-36 -40 0
39 -40 0
36 -39 40 0
c gate 41 7 -15 0
7 -41 0
-15 -41 0
-7 15 41 0
c gate 42 -20 -41 0
-20 -42 0
-41 -42 0
20 41 42 0
c gate 43 -5 13 0
-5 -43 0
13 -43 0
5 -13 43 0
c gate 44 42 -43 0
42 -44 0
-43 -44 0
-42 43 44 0
c gate 45 19 44 0
19 -45 0
44 -45 0
-19 -44 45 0
c gate 46 40 45 0
40 -46 0
45 -46 0
-40 -45 46 0
c gate 47 35 46 0
35 -47 0
46 -47 0
-35 -46 47 0
c gate 48 -36 -39 0
-36 -48 0
-39 -48 0
36 39 48 0
c gate 49 -41 -48 0
-41 -49 0
-48 -49 0
41 48 49 0
c gate 50 -20 -49 0
-20 -50 0
-49 -50 0
20 49 50 0
c gate 51 -18 -50 0
-18 -51 0
-50 -51 0
18 50 51 0
c gate 52 -17 -51 0
-17 -52 0
-51 -52 0
17 51 52 0
c gate 53 -24 -26 0
-24 -53 0
-26 -53 0
24 26 53 0
c gate 54 -32 -53 0
-32 -54 0
-53 -54 0
32 53 54 0
c gate 55 -31 -54 0
-31 -55 0
-54 -55 0
31 54 55 0
c gate 56 -28 -55 0
-28 -56 0
-55 -56 0
28 55 56 0
c gate 57 -29 -56 0
-29 -57 0
-56 -57 0
29 56 57 0
c gate 58 46 57 0
46 -58 0
57 -58 0
-46 -57 58 0
c gate 59 -52 -58 0
-52 -59 0
-58 -59 0
52 58 59 0
c gate 60 -47 -59 0
-47 -60 0
-59 -60 0
47 59 60 0
c gate 61 -35 -57 0
-35 -61 0
-57 -61 0
35 57 61 0
c gate 62 -43 -61 0
-43 -62 0
-61 -62 0
43 61 62 0
c gate 63 40 62 0
40 -63 0
62 -63 0
-40 -62 63 0
c gate 64 -48 -63 0
-48 -64 0
-63 -64 0
48 63 64 0
c gate 65 60 -64 0
60 -65 0
-64 -65 0
-60 64 65 0
c gate 66 -42 52 0
-42 -66 0
52 -66 0
42 -52 66 0
c gate 67 -48 66 0
-48 -67 0
66 -67 0
48 -66 67 0
c gate 68 -65 -67 0
-65 -68 0
-67 -68 0
65 67 68 0
c gate 69 -20 -68 0
-20 -69 0
-68 -69 0
20 68 69 0
c gate 70 -38 -57 0
-38 -70 0
-57 -70 0
38 57 70 0
c gate 71 -43 -70 0
-43 -71 0
-70 -71 0
43 70 71 0
c gate 72 -37 -71 0
-37 -72 0
-71 -72 0
37 71 72 0
c gate 73 -36 -72 0
-36 -73 0
-72 -73 0
36 72 73 0
c gate 74 -20 73 0
-20 -74 0
73 -74 0
20 -73 74 0
c gate 75 -41 -60 0
-41 -75 0
-60 -75 0
41 60 75 0
c gate 76 -74 75 0
-74 -76 0
75 -76 0
74 -75 76 0
c gate 77 -69 -76 0
-69 -77 0
-76 -77 0
69 76 77 0
c gate 78 -19 77 0
-19 -78 0
77 -78 0
19 -77 78 0
c gate 79 19 -77 0
19 -79 0
-77 -79 0
-19 77 79 0
c gate 80 17 -41 0
17 -80 0
-41 -80 0
-17 41 80 0
c gate 81 18 50 0
18 -81 0
50 -81 0
-18 -50 81 0
c gate 82 -80 -81 0
-80 -82 0
-81 -82 0
80 81 82 0
c gate 83 -79 82 0
-79 -83 0
82 -83 0
79 -82 83 0
c gate 84 -78 83 0
-78 -84 0
83 -84 0
78 -83 84 0
c PO
84 0
